(set-logic QF_S)
(declare-fun M1_2 () String)
(declare-fun P1_2 () String)
(declare-fun var_0xINPUT_2 () String)
(declare-fun T0_2 () String)
(declare-fun T2_2 () String)
(declare-fun P0_2 () String)
(declare-fun T_2 () String)
(declare-fun T1_2 () String)
(declare-fun M0_2 () String)
(declare-fun PCTEMP_LHS_1_idx_0 () String)
(declare-fun PCTEMP_LHS_1_idx_1 () String)
(declare-fun PCTEMP_LHS_1_idx_2 () String)
(assert (and (= T2_2 PCTEMP_LHS_1_idx_2) (= T0_2 var_0xINPUT_2) (= M1_2 "=") (not (in PCTEMP_LHS_1_idx_1 /=/)) (= P1_2 (concat PCTEMP_LHS_1_idx_1 M1_2)) (= T1_2 (concat P1_2 T2_2)) (= M0_2 "=") (not (in PCTEMP_LHS_1_idx_0 /=/)) (= P0_2 (concat PCTEMP_LHS_1_idx_0 M0_2)) (= T0_2 (concat P0_2 T1_2)) (= T_2 PCTEMP_LHS_1_idx_0) (not (= T_2 "Hello"))))
(check-sat var_0xINPUT_2)